(set-logic QF_LRA)
(declare-fun X0 () Real )
(declare-fun Y0 () Real )
(declare-fun X1 () Real )
(declare-fun Y1 () Real )
(declare-fun X2 () Real )
(declare-fun Y2 () Real )
(declare-fun X3 () Real )
(declare-fun Y3 () Real )
(declare-fun X4 () Real )
(declare-fun Y4 () Real )
(declare-fun X5 () Real )
(declare-fun Y5 () Real )
(declare-fun X6 () Real )
(declare-fun Y6 () Real )
(declare-fun X7 () Real )
(declare-fun Y7 () Real )
(declare-fun X8 () Real )
(declare-fun Y8 () Real )
(declare-fun X9 () Real )
(declare-fun Y9 () Real )
(declare-fun X10 () Real )
(declare-fun Y10 () Real )
(declare-fun X11 () Real )
(declare-fun Y11 () Real )
(declare-fun X12 () Real )
(declare-fun Y12 () Real )
(declare-fun X13 () Real )
(declare-fun Y13 () Real )
(declare-fun X14 () Real )
(declare-fun Y14 () Real )
(declare-fun X15 () Real )
(declare-fun Y15 () Real )
(declare-fun X16 () Real )
(declare-fun Y16 () Real )
(declare-fun X17 () Real )
(declare-fun Y17 () Real )
(declare-fun Z () Real )
(declare-fun k () Real )
(assert (let
(( $goal (>= Z k) ))
(let
((
$phi ( and 
( or ( <= ( + X0 58 ) X1 )  ( <= ( + X1 60 ) X0 )  ( <= ( + Y0 82 ) Y1 )  ( <= ( + Y1 76 ) Y0 )  )
( or ( <= ( + X0 58 ) X2 )  ( <= ( + X2 18 ) X0 )  ( <= ( + Y0 82 ) Y2 )  ( <= ( + Y2 8 ) Y0 )  )
( or ( <= ( + X0 58 ) X3 )  ( <= ( + X3 57 ) X0 )  ( <= ( + Y0 82 ) Y3 )  ( <= ( + Y3 42 ) Y0 )  )
( or ( <= ( + X0 58 ) X4 )  ( <= ( + X4 9 ) X0 )  ( <= ( + Y0 82 ) Y4 )  ( <= ( + Y4 15 ) Y0 )  )
( or ( <= ( + X0 58 ) X5 )  ( <= ( + X5 66 ) X0 )  ( <= ( + Y0 82 ) Y5 )  ( <= ( + Y5 30 ) Y0 )  )
( or ( <= ( + X0 58 ) X6 )  ( <= ( + X6 34 ) X0 )  ( <= ( + Y0 82 ) Y6 )  ( <= ( + Y6 93 ) Y0 )  )
( or ( <= ( + X0 58 ) X7 )  ( <= ( + X7 35 ) X0 )  ( <= ( + Y0 82 ) Y7 )  ( <= ( + Y7 79 ) Y0 )  )
( or ( <= ( + X0 58 ) X8 )  ( <= ( + X8 88 ) X0 )  ( <= ( + Y0 82 ) Y8 )  ( <= ( + Y8 91 ) Y0 )  )
( or ( <= ( + X0 58 ) X9 )  ( <= ( + X9 30 ) X0 )  ( <= ( + Y0 82 ) Y9 )  ( <= ( + Y9 9 ) Y0 )  )
( or ( <= ( + X0 58 ) X10 )  ( <= ( + X10 6 ) X0 )  ( <= ( + Y0 82 ) Y10 )  ( <= ( + Y10 35 ) Y0 )  )
( or ( <= ( + X0 58 ) X11 )  ( <= ( + X11 56 ) X0 )  ( <= ( + Y0 82 ) Y11 )  ( <= ( + Y11 15 ) Y0 )  )
( or ( <= ( + X0 58 ) X12 )  ( <= ( + X12 69 ) X0 )  ( <= ( + Y0 82 ) Y12 )  ( <= ( + Y12 88 ) Y0 )  )
( or ( <= ( + X0 58 ) X13 )  ( <= ( + X13 16 ) X0 )  ( <= ( + Y0 82 ) Y13 )  ( <= ( + Y13 45 ) Y0 )  )
( or ( <= ( + X0 58 ) X14 )  ( <= ( + X14 47 ) X0 )  ( <= ( + Y0 82 ) Y14 )  ( <= ( + Y14 75 ) Y0 )  )
( or ( <= ( + X0 58 ) X15 )  ( <= ( + X15 9 ) X0 )  ( <= ( + Y0 82 ) Y15 )  ( <= ( + Y15 57 ) Y0 )  )
( or ( <= ( + X0 58 ) X16 )  ( <= ( + X16 39 ) X0 )  ( <= ( + Y0 82 ) Y16 )  ( <= ( + Y16 1 ) Y0 )  )
( or ( <= ( + X0 58 ) X17 )  ( <= ( + X17 81 ) X0 )  ( <= ( + Y0 82 ) Y17 )  ( <= ( + Y17 83 ) Y0 )  )
( or ( <= ( + X1 60 ) X2 )  ( <= ( + X2 18 ) X1 )  ( <= ( + Y1 76 ) Y2 )  ( <= ( + Y2 8 ) Y1 )  )
( or ( <= ( + X1 60 ) X3 )  ( <= ( + X3 57 ) X1 )  ( <= ( + Y1 76 ) Y3 )  ( <= ( + Y3 42 ) Y1 )  )
( or ( <= ( + X1 60 ) X4 )  ( <= ( + X4 9 ) X1 )  ( <= ( + Y1 76 ) Y4 )  ( <= ( + Y4 15 ) Y1 )  )
( or ( <= ( + X1 60 ) X5 )  ( <= ( + X5 66 ) X1 )  ( <= ( + Y1 76 ) Y5 )  ( <= ( + Y5 30 ) Y1 )  )
( or ( <= ( + X1 60 ) X6 )  ( <= ( + X6 34 ) X1 )  ( <= ( + Y1 76 ) Y6 )  ( <= ( + Y6 93 ) Y1 )  )
( or ( <= ( + X1 60 ) X7 )  ( <= ( + X7 35 ) X1 )  ( <= ( + Y1 76 ) Y7 )  ( <= ( + Y7 79 ) Y1 )  )
( or ( <= ( + X1 60 ) X8 )  ( <= ( + X8 88 ) X1 )  ( <= ( + Y1 76 ) Y8 )  ( <= ( + Y8 91 ) Y1 )  )
( or ( <= ( + X1 60 ) X9 )  ( <= ( + X9 30 ) X1 )  ( <= ( + Y1 76 ) Y9 )  ( <= ( + Y9 9 ) Y1 )  )
( or ( <= ( + X1 60 ) X10 )  ( <= ( + X10 6 ) X1 )  ( <= ( + Y1 76 ) Y10 )  ( <= ( + Y10 35 ) Y1 )  )
( or ( <= ( + X1 60 ) X11 )  ( <= ( + X11 56 ) X1 )  ( <= ( + Y1 76 ) Y11 )  ( <= ( + Y11 15 ) Y1 )  )
( or ( <= ( + X1 60 ) X12 )  ( <= ( + X12 69 ) X1 )  ( <= ( + Y1 76 ) Y12 )  ( <= ( + Y12 88 ) Y1 )  )
( or ( <= ( + X1 60 ) X13 )  ( <= ( + X13 16 ) X1 )  ( <= ( + Y1 76 ) Y13 )  ( <= ( + Y13 45 ) Y1 )  )
( or ( <= ( + X1 60 ) X14 )  ( <= ( + X14 47 ) X1 )  ( <= ( + Y1 76 ) Y14 )  ( <= ( + Y14 75 ) Y1 )  )
( or ( <= ( + X1 60 ) X15 )  ( <= ( + X15 9 ) X1 )  ( <= ( + Y1 76 ) Y15 )  ( <= ( + Y15 57 ) Y1 )  )
( or ( <= ( + X1 60 ) X16 )  ( <= ( + X16 39 ) X1 )  ( <= ( + Y1 76 ) Y16 )  ( <= ( + Y16 1 ) Y1 )  )
( or ( <= ( + X1 60 ) X17 )  ( <= ( + X17 81 ) X1 )  ( <= ( + Y1 76 ) Y17 )  ( <= ( + Y17 83 ) Y1 )  )
( or ( <= ( + X2 18 ) X3 )  ( <= ( + X3 57 ) X2 )  ( <= ( + Y2 8 ) Y3 )  ( <= ( + Y3 42 ) Y2 )  )
( or ( <= ( + X2 18 ) X4 )  ( <= ( + X4 9 ) X2 )  ( <= ( + Y2 8 ) Y4 )  ( <= ( + Y4 15 ) Y2 )  )
( or ( <= ( + X2 18 ) X5 )  ( <= ( + X5 66 ) X2 )  ( <= ( + Y2 8 ) Y5 )  ( <= ( + Y5 30 ) Y2 )  )
( or ( <= ( + X2 18 ) X6 )  ( <= ( + X6 34 ) X2 )  ( <= ( + Y2 8 ) Y6 )  ( <= ( + Y6 93 ) Y2 )  )
( or ( <= ( + X2 18 ) X7 )  ( <= ( + X7 35 ) X2 )  ( <= ( + Y2 8 ) Y7 )  ( <= ( + Y7 79 ) Y2 )  )
( or ( <= ( + X2 18 ) X8 )  ( <= ( + X8 88 ) X2 )  ( <= ( + Y2 8 ) Y8 )  ( <= ( + Y8 91 ) Y2 )  )
( or ( <= ( + X2 18 ) X9 )  ( <= ( + X9 30 ) X2 )  ( <= ( + Y2 8 ) Y9 )  ( <= ( + Y9 9 ) Y2 )  )
( or ( <= ( + X2 18 ) X10 )  ( <= ( + X10 6 ) X2 )  ( <= ( + Y2 8 ) Y10 )  ( <= ( + Y10 35 ) Y2 )  )
( or ( <= ( + X2 18 ) X11 )  ( <= ( + X11 56 ) X2 )  ( <= ( + Y2 8 ) Y11 )  ( <= ( + Y11 15 ) Y2 )  )
( or ( <= ( + X2 18 ) X12 )  ( <= ( + X12 69 ) X2 )  ( <= ( + Y2 8 ) Y12 )  ( <= ( + Y12 88 ) Y2 )  )
( or ( <= ( + X2 18 ) X13 )  ( <= ( + X13 16 ) X2 )  ( <= ( + Y2 8 ) Y13 )  ( <= ( + Y13 45 ) Y2 )  )
( or ( <= ( + X2 18 ) X14 )  ( <= ( + X14 47 ) X2 )  ( <= ( + Y2 8 ) Y14 )  ( <= ( + Y14 75 ) Y2 )  )
( or ( <= ( + X2 18 ) X15 )  ( <= ( + X15 9 ) X2 )  ( <= ( + Y2 8 ) Y15 )  ( <= ( + Y15 57 ) Y2 )  )
( or ( <= ( + X2 18 ) X16 )  ( <= ( + X16 39 ) X2 )  ( <= ( + Y2 8 ) Y16 )  ( <= ( + Y16 1 ) Y2 )  )
( or ( <= ( + X2 18 ) X17 )  ( <= ( + X17 81 ) X2 )  ( <= ( + Y2 8 ) Y17 )  ( <= ( + Y17 83 ) Y2 )  )
( or ( <= ( + X3 57 ) X4 )  ( <= ( + X4 9 ) X3 )  ( <= ( + Y3 42 ) Y4 )  ( <= ( + Y4 15 ) Y3 )  )
( or ( <= ( + X3 57 ) X5 )  ( <= ( + X5 66 ) X3 )  ( <= ( + Y3 42 ) Y5 )  ( <= ( + Y5 30 ) Y3 )  )
( or ( <= ( + X3 57 ) X6 )  ( <= ( + X6 34 ) X3 )  ( <= ( + Y3 42 ) Y6 )  ( <= ( + Y6 93 ) Y3 )  )
( or ( <= ( + X3 57 ) X7 )  ( <= ( + X7 35 ) X3 )  ( <= ( + Y3 42 ) Y7 )  ( <= ( + Y7 79 ) Y3 )  )
( or ( <= ( + X3 57 ) X8 )  ( <= ( + X8 88 ) X3 )  ( <= ( + Y3 42 ) Y8 )  ( <= ( + Y8 91 ) Y3 )  )
( or ( <= ( + X3 57 ) X9 )  ( <= ( + X9 30 ) X3 )  ( <= ( + Y3 42 ) Y9 )  ( <= ( + Y9 9 ) Y3 )  )
( or ( <= ( + X3 57 ) X10 )  ( <= ( + X10 6 ) X3 )  ( <= ( + Y3 42 ) Y10 )  ( <= ( + Y10 35 ) Y3 )  )
( or ( <= ( + X3 57 ) X11 )  ( <= ( + X11 56 ) X3 )  ( <= ( + Y3 42 ) Y11 )  ( <= ( + Y11 15 ) Y3 )  )
( or ( <= ( + X3 57 ) X12 )  ( <= ( + X12 69 ) X3 )  ( <= ( + Y3 42 ) Y12 )  ( <= ( + Y12 88 ) Y3 )  )
( or ( <= ( + X3 57 ) X13 )  ( <= ( + X13 16 ) X3 )  ( <= ( + Y3 42 ) Y13 )  ( <= ( + Y13 45 ) Y3 )  )
( or ( <= ( + X3 57 ) X14 )  ( <= ( + X14 47 ) X3 )  ( <= ( + Y3 42 ) Y14 )  ( <= ( + Y14 75 ) Y3 )  )
( or ( <= ( + X3 57 ) X15 )  ( <= ( + X15 9 ) X3 )  ( <= ( + Y3 42 ) Y15 )  ( <= ( + Y15 57 ) Y3 )  )
( or ( <= ( + X3 57 ) X16 )  ( <= ( + X16 39 ) X3 )  ( <= ( + Y3 42 ) Y16 )  ( <= ( + Y16 1 ) Y3 )  )
( or ( <= ( + X3 57 ) X17 )  ( <= ( + X17 81 ) X3 )  ( <= ( + Y3 42 ) Y17 )  ( <= ( + Y17 83 ) Y3 )  )
( or ( <= ( + X4 9 ) X5 )  ( <= ( + X5 66 ) X4 )  ( <= ( + Y4 15 ) Y5 )  ( <= ( + Y5 30 ) Y4 )  )
( or ( <= ( + X4 9 ) X6 )  ( <= ( + X6 34 ) X4 )  ( <= ( + Y4 15 ) Y6 )  ( <= ( + Y6 93 ) Y4 )  )
( or ( <= ( + X4 9 ) X7 )  ( <= ( + X7 35 ) X4 )  ( <= ( + Y4 15 ) Y7 )  ( <= ( + Y7 79 ) Y4 )  )
( or ( <= ( + X4 9 ) X8 )  ( <= ( + X8 88 ) X4 )  ( <= ( + Y4 15 ) Y8 )  ( <= ( + Y8 91 ) Y4 )  )
( or ( <= ( + X4 9 ) X9 )  ( <= ( + X9 30 ) X4 )  ( <= ( + Y4 15 ) Y9 )  ( <= ( + Y9 9 ) Y4 )  )
( or ( <= ( + X4 9 ) X10 )  ( <= ( + X10 6 ) X4 )  ( <= ( + Y4 15 ) Y10 )  ( <= ( + Y10 35 ) Y4 )  )
( or ( <= ( + X4 9 ) X11 )  ( <= ( + X11 56 ) X4 )  ( <= ( + Y4 15 ) Y11 )  ( <= ( + Y11 15 ) Y4 )  )
( or ( <= ( + X4 9 ) X12 )  ( <= ( + X12 69 ) X4 )  ( <= ( + Y4 15 ) Y12 )  ( <= ( + Y12 88 ) Y4 )  )
( or ( <= ( + X4 9 ) X13 )  ( <= ( + X13 16 ) X4 )  ( <= ( + Y4 15 ) Y13 )  ( <= ( + Y13 45 ) Y4 )  )
( or ( <= ( + X4 9 ) X14 )  ( <= ( + X14 47 ) X4 )  ( <= ( + Y4 15 ) Y14 )  ( <= ( + Y14 75 ) Y4 )  )
( or ( <= ( + X4 9 ) X15 )  ( <= ( + X15 9 ) X4 )  ( <= ( + Y4 15 ) Y15 )  ( <= ( + Y15 57 ) Y4 )  )
( or ( <= ( + X4 9 ) X16 )  ( <= ( + X16 39 ) X4 )  ( <= ( + Y4 15 ) Y16 )  ( <= ( + Y16 1 ) Y4 )  )
( or ( <= ( + X4 9 ) X17 )  ( <= ( + X17 81 ) X4 )  ( <= ( + Y4 15 ) Y17 )  ( <= ( + Y17 83 ) Y4 )  )
( or ( <= ( + X5 66 ) X6 )  ( <= ( + X6 34 ) X5 )  ( <= ( + Y5 30 ) Y6 )  ( <= ( + Y6 93 ) Y5 )  )
( or ( <= ( + X5 66 ) X7 )  ( <= ( + X7 35 ) X5 )  ( <= ( + Y5 30 ) Y7 )  ( <= ( + Y7 79 ) Y5 )  )
( or ( <= ( + X5 66 ) X8 )  ( <= ( + X8 88 ) X5 )  ( <= ( + Y5 30 ) Y8 )  ( <= ( + Y8 91 ) Y5 )  )
( or ( <= ( + X5 66 ) X9 )  ( <= ( + X9 30 ) X5 )  ( <= ( + Y5 30 ) Y9 )  ( <= ( + Y9 9 ) Y5 )  )
( or ( <= ( + X5 66 ) X10 )  ( <= ( + X10 6 ) X5 )  ( <= ( + Y5 30 ) Y10 )  ( <= ( + Y10 35 ) Y5 )  )
( or ( <= ( + X5 66 ) X11 )  ( <= ( + X11 56 ) X5 )  ( <= ( + Y5 30 ) Y11 )  ( <= ( + Y11 15 ) Y5 )  )
( or ( <= ( + X5 66 ) X12 )  ( <= ( + X12 69 ) X5 )  ( <= ( + Y5 30 ) Y12 )  ( <= ( + Y12 88 ) Y5 )  )
( or ( <= ( + X5 66 ) X13 )  ( <= ( + X13 16 ) X5 )  ( <= ( + Y5 30 ) Y13 )  ( <= ( + Y13 45 ) Y5 )  )
( or ( <= ( + X5 66 ) X14 )  ( <= ( + X14 47 ) X5 )  ( <= ( + Y5 30 ) Y14 )  ( <= ( + Y14 75 ) Y5 )  )
( or ( <= ( + X5 66 ) X15 )  ( <= ( + X15 9 ) X5 )  ( <= ( + Y5 30 ) Y15 )  ( <= ( + Y15 57 ) Y5 )  )
( or ( <= ( + X5 66 ) X16 )  ( <= ( + X16 39 ) X5 )  ( <= ( + Y5 30 ) Y16 )  ( <= ( + Y16 1 ) Y5 )  )
( or ( <= ( + X5 66 ) X17 )  ( <= ( + X17 81 ) X5 )  ( <= ( + Y5 30 ) Y17 )  ( <= ( + Y17 83 ) Y5 )  )
( or ( <= ( + X6 34 ) X7 )  ( <= ( + X7 35 ) X6 )  ( <= ( + Y6 93 ) Y7 )  ( <= ( + Y7 79 ) Y6 )  )
( or ( <= ( + X6 34 ) X8 )  ( <= ( + X8 88 ) X6 )  ( <= ( + Y6 93 ) Y8 )  ( <= ( + Y8 91 ) Y6 )  )
( or ( <= ( + X6 34 ) X9 )  ( <= ( + X9 30 ) X6 )  ( <= ( + Y6 93 ) Y9 )  ( <= ( + Y9 9 ) Y6 )  )
( or ( <= ( + X6 34 ) X10 )  ( <= ( + X10 6 ) X6 )  ( <= ( + Y6 93 ) Y10 )  ( <= ( + Y10 35 ) Y6 )  )
( or ( <= ( + X6 34 ) X11 )  ( <= ( + X11 56 ) X6 )  ( <= ( + Y6 93 ) Y11 )  ( <= ( + Y11 15 ) Y6 )  )
( or ( <= ( + X6 34 ) X12 )  ( <= ( + X12 69 ) X6 )  ( <= ( + Y6 93 ) Y12 )  ( <= ( + Y12 88 ) Y6 )  )
( or ( <= ( + X6 34 ) X13 )  ( <= ( + X13 16 ) X6 )  ( <= ( + Y6 93 ) Y13 )  ( <= ( + Y13 45 ) Y6 )  )
( or ( <= ( + X6 34 ) X14 )  ( <= ( + X14 47 ) X6 )  ( <= ( + Y6 93 ) Y14 )  ( <= ( + Y14 75 ) Y6 )  )
( or ( <= ( + X6 34 ) X15 )  ( <= ( + X15 9 ) X6 )  ( <= ( + Y6 93 ) Y15 )  ( <= ( + Y15 57 ) Y6 )  )
( or ( <= ( + X6 34 ) X16 )  ( <= ( + X16 39 ) X6 )  ( <= ( + Y6 93 ) Y16 )  ( <= ( + Y16 1 ) Y6 )  )
( or ( <= ( + X6 34 ) X17 )  ( <= ( + X17 81 ) X6 )  ( <= ( + Y6 93 ) Y17 )  ( <= ( + Y17 83 ) Y6 )  )
( or ( <= ( + X7 35 ) X8 )  ( <= ( + X8 88 ) X7 )  ( <= ( + Y7 79 ) Y8 )  ( <= ( + Y8 91 ) Y7 )  )
( or ( <= ( + X7 35 ) X9 )  ( <= ( + X9 30 ) X7 )  ( <= ( + Y7 79 ) Y9 )  ( <= ( + Y9 9 ) Y7 )  )
( or ( <= ( + X7 35 ) X10 )  ( <= ( + X10 6 ) X7 )  ( <= ( + Y7 79 ) Y10 )  ( <= ( + Y10 35 ) Y7 )  )
( or ( <= ( + X7 35 ) X11 )  ( <= ( + X11 56 ) X7 )  ( <= ( + Y7 79 ) Y11 )  ( <= ( + Y11 15 ) Y7 )  )
( or ( <= ( + X7 35 ) X12 )  ( <= ( + X12 69 ) X7 )  ( <= ( + Y7 79 ) Y12 )  ( <= ( + Y12 88 ) Y7 )  )
( or ( <= ( + X7 35 ) X13 )  ( <= ( + X13 16 ) X7 )  ( <= ( + Y7 79 ) Y13 )  ( <= ( + Y13 45 ) Y7 )  )
( or ( <= ( + X7 35 ) X14 )  ( <= ( + X14 47 ) X7 )  ( <= ( + Y7 79 ) Y14 )  ( <= ( + Y14 75 ) Y7 )  )
( or ( <= ( + X7 35 ) X15 )  ( <= ( + X15 9 ) X7 )  ( <= ( + Y7 79 ) Y15 )  ( <= ( + Y15 57 ) Y7 )  )
( or ( <= ( + X7 35 ) X16 )  ( <= ( + X16 39 ) X7 )  ( <= ( + Y7 79 ) Y16 )  ( <= ( + Y16 1 ) Y7 )  )
( or ( <= ( + X7 35 ) X17 )  ( <= ( + X17 81 ) X7 )  ( <= ( + Y7 79 ) Y17 )  ( <= ( + Y17 83 ) Y7 )  )
( or ( <= ( + X8 88 ) X9 )  ( <= ( + X9 30 ) X8 )  ( <= ( + Y8 91 ) Y9 )  ( <= ( + Y9 9 ) Y8 )  )
( or ( <= ( + X8 88 ) X10 )  ( <= ( + X10 6 ) X8 )  ( <= ( + Y8 91 ) Y10 )  ( <= ( + Y10 35 ) Y8 )  )
( or ( <= ( + X8 88 ) X11 )  ( <= ( + X11 56 ) X8 )  ( <= ( + Y8 91 ) Y11 )  ( <= ( + Y11 15 ) Y8 )  )
( or ( <= ( + X8 88 ) X12 )  ( <= ( + X12 69 ) X8 )  ( <= ( + Y8 91 ) Y12 )  ( <= ( + Y12 88 ) Y8 )  )
( or ( <= ( + X8 88 ) X13 )  ( <= ( + X13 16 ) X8 )  ( <= ( + Y8 91 ) Y13 )  ( <= ( + Y13 45 ) Y8 )  )
( or ( <= ( + X8 88 ) X14 )  ( <= ( + X14 47 ) X8 )  ( <= ( + Y8 91 ) Y14 )  ( <= ( + Y14 75 ) Y8 )  )
( or ( <= ( + X8 88 ) X15 )  ( <= ( + X15 9 ) X8 )  ( <= ( + Y8 91 ) Y15 )  ( <= ( + Y15 57 ) Y8 )  )
( or ( <= ( + X8 88 ) X16 )  ( <= ( + X16 39 ) X8 )  ( <= ( + Y8 91 ) Y16 )  ( <= ( + Y16 1 ) Y8 )  )
( or ( <= ( + X8 88 ) X17 )  ( <= ( + X17 81 ) X8 )  ( <= ( + Y8 91 ) Y17 )  ( <= ( + Y17 83 ) Y8 )  )
( or ( <= ( + X9 30 ) X10 )  ( <= ( + X10 6 ) X9 )  ( <= ( + Y9 9 ) Y10 )  ( <= ( + Y10 35 ) Y9 )  )
( or ( <= ( + X9 30 ) X11 )  ( <= ( + X11 56 ) X9 )  ( <= ( + Y9 9 ) Y11 )  ( <= ( + Y11 15 ) Y9 )  )
( or ( <= ( + X9 30 ) X12 )  ( <= ( + X12 69 ) X9 )  ( <= ( + Y9 9 ) Y12 )  ( <= ( + Y12 88 ) Y9 )  )
( or ( <= ( + X9 30 ) X13 )  ( <= ( + X13 16 ) X9 )  ( <= ( + Y9 9 ) Y13 )  ( <= ( + Y13 45 ) Y9 )  )
( or ( <= ( + X9 30 ) X14 )  ( <= ( + X14 47 ) X9 )  ( <= ( + Y9 9 ) Y14 )  ( <= ( + Y14 75 ) Y9 )  )
( or ( <= ( + X9 30 ) X15 )  ( <= ( + X15 9 ) X9 )  ( <= ( + Y9 9 ) Y15 )  ( <= ( + Y15 57 ) Y9 )  )
( or ( <= ( + X9 30 ) X16 )  ( <= ( + X16 39 ) X9 )  ( <= ( + Y9 9 ) Y16 )  ( <= ( + Y16 1 ) Y9 )  )
( or ( <= ( + X9 30 ) X17 )  ( <= ( + X17 81 ) X9 )  ( <= ( + Y9 9 ) Y17 )  ( <= ( + Y17 83 ) Y9 )  )
( or ( <= ( + X10 6 ) X11 )  ( <= ( + X11 56 ) X10 )  ( <= ( + Y10 35 ) Y11 )  ( <= ( + Y11 15 ) Y10 )  )
( or ( <= ( + X10 6 ) X12 )  ( <= ( + X12 69 ) X10 )  ( <= ( + Y10 35 ) Y12 )  ( <= ( + Y12 88 ) Y10 )  )
( or ( <= ( + X10 6 ) X13 )  ( <= ( + X13 16 ) X10 )  ( <= ( + Y10 35 ) Y13 )  ( <= ( + Y13 45 ) Y10 )  )
( or ( <= ( + X10 6 ) X14 )  ( <= ( + X14 47 ) X10 )  ( <= ( + Y10 35 ) Y14 )  ( <= ( + Y14 75 ) Y10 )  )
( or ( <= ( + X10 6 ) X15 )  ( <= ( + X15 9 ) X10 )  ( <= ( + Y10 35 ) Y15 )  ( <= ( + Y15 57 ) Y10 )  )
( or ( <= ( + X10 6 ) X16 )  ( <= ( + X16 39 ) X10 )  ( <= ( + Y10 35 ) Y16 )  ( <= ( + Y16 1 ) Y10 )  )
( or ( <= ( + X10 6 ) X17 )  ( <= ( + X17 81 ) X10 )  ( <= ( + Y10 35 ) Y17 )  ( <= ( + Y17 83 ) Y10 )  )
( or ( <= ( + X11 56 ) X12 )  ( <= ( + X12 69 ) X11 )  ( <= ( + Y11 15 ) Y12 )  ( <= ( + Y12 88 ) Y11 )  )
( or ( <= ( + X11 56 ) X13 )  ( <= ( + X13 16 ) X11 )  ( <= ( + Y11 15 ) Y13 )  ( <= ( + Y13 45 ) Y11 )  )
( or ( <= ( + X11 56 ) X14 )  ( <= ( + X14 47 ) X11 )  ( <= ( + Y11 15 ) Y14 )  ( <= ( + Y14 75 ) Y11 )  )
( or ( <= ( + X11 56 ) X15 )  ( <= ( + X15 9 ) X11 )  ( <= ( + Y11 15 ) Y15 )  ( <= ( + Y15 57 ) Y11 )  )
( or ( <= ( + X11 56 ) X16 )  ( <= ( + X16 39 ) X11 )  ( <= ( + Y11 15 ) Y16 )  ( <= ( + Y16 1 ) Y11 )  )
( or ( <= ( + X11 56 ) X17 )  ( <= ( + X17 81 ) X11 )  ( <= ( + Y11 15 ) Y17 )  ( <= ( + Y17 83 ) Y11 )  )
( or ( <= ( + X12 69 ) X13 )  ( <= ( + X13 16 ) X12 )  ( <= ( + Y12 88 ) Y13 )  ( <= ( + Y13 45 ) Y12 )  )
( or ( <= ( + X12 69 ) X14 )  ( <= ( + X14 47 ) X12 )  ( <= ( + Y12 88 ) Y14 )  ( <= ( + Y14 75 ) Y12 )  )
( or ( <= ( + X12 69 ) X15 )  ( <= ( + X15 9 ) X12 )  ( <= ( + Y12 88 ) Y15 )  ( <= ( + Y15 57 ) Y12 )  )
( or ( <= ( + X12 69 ) X16 )  ( <= ( + X16 39 ) X12 )  ( <= ( + Y12 88 ) Y16 )  ( <= ( + Y16 1 ) Y12 )  )
( or ( <= ( + X12 69 ) X17 )  ( <= ( + X17 81 ) X12 )  ( <= ( + Y12 88 ) Y17 )  ( <= ( + Y17 83 ) Y12 )  )
( or ( <= ( + X13 16 ) X14 )  ( <= ( + X14 47 ) X13 )  ( <= ( + Y13 45 ) Y14 )  ( <= ( + Y14 75 ) Y13 )  )
( or ( <= ( + X13 16 ) X15 )  ( <= ( + X15 9 ) X13 )  ( <= ( + Y13 45 ) Y15 )  ( <= ( + Y15 57 ) Y13 )  )
( or ( <= ( + X13 16 ) X16 )  ( <= ( + X16 39 ) X13 )  ( <= ( + Y13 45 ) Y16 )  ( <= ( + Y16 1 ) Y13 )  )
( or ( <= ( + X13 16 ) X17 )  ( <= ( + X17 81 ) X13 )  ( <= ( + Y13 45 ) Y17 )  ( <= ( + Y17 83 ) Y13 )  )
( or ( <= ( + X14 47 ) X15 )  ( <= ( + X15 9 ) X14 )  ( <= ( + Y14 75 ) Y15 )  ( <= ( + Y15 57 ) Y14 )  )
( or ( <= ( + X14 47 ) X16 )  ( <= ( + X16 39 ) X14 )  ( <= ( + Y14 75 ) Y16 )  ( <= ( + Y16 1 ) Y14 )  )
( or ( <= ( + X14 47 ) X17 )  ( <= ( + X17 81 ) X14 )  ( <= ( + Y14 75 ) Y17 )  ( <= ( + Y17 83 ) Y14 )  )
( or ( <= ( + X15 9 ) X16 )  ( <= ( + X16 39 ) X15 )  ( <= ( + Y15 57 ) Y16 )  ( <= ( + Y16 1 ) Y15 )  )
( or ( <= ( + X15 9 ) X17 )  ( <= ( + X17 81 ) X15 )  ( <= ( + Y15 57 ) Y17 )  ( <= ( + Y17 83 ) Y15 )  )
( or ( <= ( + X16 39 ) X17 )  ( <= ( + X17 81 ) X16 )  ( <= ( + Y16 1 ) Y17 )  ( <= ( + Y17 83 ) Y16 )  )
( >= X0 0)
( <= ( + X0 58) Z)
( >= Y0 0)
( <= ( + Y0 82 ) 212)
( >= X1 0)
( <= ( + X1 60) Z)
( >= Y1 0)
( <= ( + Y1 76 ) 212)
( >= X2 0)
( <= ( + X2 18) Z)
( >= Y2 0)
( <= ( + Y2 8 ) 212)
( >= X3 0)
( <= ( + X3 57) Z)
( >= Y3 0)
( <= ( + Y3 42 ) 212)
( >= X4 0)
( <= ( + X4 9) Z)
( >= Y4 0)
( <= ( + Y4 15 ) 212)
( >= X5 0)
( <= ( + X5 66) Z)
( >= Y5 0)
( <= ( + Y5 30 ) 212)
( >= X6 0)
( <= ( + X6 34) Z)
( >= Y6 0)
( <= ( + Y6 93 ) 212)
( >= X7 0)
( <= ( + X7 35) Z)
( >= Y7 0)
( <= ( + Y7 79 ) 212)
( >= X8 0)
( <= ( + X8 88) Z)
( >= Y8 0)
( <= ( + Y8 91 ) 212)
( >= X9 0)
( <= ( + X9 30) Z)
( >= Y9 0)
( <= ( + Y9 9 ) 212)
( >= X10 0)
( <= ( + X10 6) Z)
( >= Y10 0)
( <= ( + Y10 35 ) 212)
( >= X11 0)
( <= ( + X11 56) Z)
( >= Y11 0)
( <= ( + Y11 15 ) 212)
( >= X12 0)
( <= ( + X12 69) Z)
( >= Y12 0)
( <= ( + Y12 88 ) 212)
( >= X13 0)
( <= ( + X13 16) Z)
( >= Y13 0)
( <= ( + Y13 45 ) 212)
( >= X14 0)
( <= ( + X14 47) Z)
( >= Y14 0)
( <= ( + Y14 75 ) 212)
( >= X15 0)
( <= ( + X15 9) Z)
( >= Y15 0)
( <= ( + Y15 57 ) 212)
( >= X16 0)
( <= ( + X16 39) Z)
( >= Y16 0)
( <= ( + Y16 1 ) 212)
( >= X17 0)
( <= ( + X17 81) Z)
( >= Y17 0)
( <= ( + Y17 83 ) 212)
) )
)(=> $phi $goal))))